23
3 0 3 0
3 0 2 0
3 0 16 0
3 0 4 0
3 0 14 0
3 0 5 0
3 0 19 0
3 0 6 0
3 0 8 0
3 0 25 0
3 0 7 0
3 0 22 0
3 0 13 0
3 0 34 0
3 0 33 0
4 0 1 10 0
5 0 9 23 15 0
3 0 21 0
5 0 30 26 29 0
6 0 36 32 18 35 0
5 0 12 17 24 0
6 0 11 27 31 28 0
3 0 20 0
